data/evaluate/tsp/small/C200_1014.tsp
NAME : portcgen-200-1014
COMMENT : portcgen N=200, seed=1014
TYPE : TSP
DIMENSION : 200
EDGE_WEIGHT_TYPE : EUC_2D
NODE_COORD_SECTION
1 619930 292369
2 477424 436059
3 638536 414380
4 545345 360550
5 685169 218217
6 563508 310666
7 483686 340023
8 667457 211555
9 515474 356554
10 646408 408912
11 552017 274704
12 399103 356221
13 567814 241598
14 609974 290423
15 581300 389052
16 592700 471404
17 641298 393622
18 633191 353198
19 456326 339412
20 493982 362332
21 486369 278866
22 381528 494464
23 379786 346024
24 504491 263981
25 394243 347428
26 536679 235778
27 671358 351840
28 621961 246522
29 547601 429889
30 569373 378516
31 473839 407093
32 564955 325533
33 326627 366440
34 369015 315612
35 594880 350510
36 492839 249908
37 507398 312611
38 590545 403882
39 478380 363319
40 568553 304734
41 550651 427955
42 574994 352257
43 705783 240233
44 499910 284168
45 522749 457409
46 648111 392550
47 486700 381889
48 680827 386265
49 539395 258573
50 665486 280148
51 600277 354622
52 686128 315365
53 734865 330170
54 476231 410091
55 560869 380674
56 595323 410820
57 586561 292656
58 687309 529689
59 626554 295864
60 571859 340925
61 602636 362161
62 616585 309874
63 515273 348912
64 599025 369067
65 702700 317857
66 374156 328884
67 677366 229961
68 640734 331745
69 546106 272345
70 600672 306546
71 506153 231810
72 594875 391065
73 483700 171381
74 627459 252651
75 536282 461365
76 705279 391740
77 480378 437877
78 659800 345017
79 582017 191031
80 649548 241973
81 541086 209804
82 537191 388047
83 535318 271860
84 627360 281549
85 369744 338437
86 655439 276837
87 458793 350564
88 381064 337868
89 645645 182077
90 603916 365216
91 537126 431399
92 657232 321345
93 559917 297110
94 560387 350117
95 354233 299580
96 482053 393911
97 519433 276014
98 596672 227186
99 450270 335029
100 564795 315586
101 626684 296741
102 512455 371098
103 533609 348039
104 640803 272890
105 508819 270224
106 640101 285593
107 755461 332003
108 514251 407899
109 553752 342020
110 604783 194698
111 651566 326688
112 463512 381173
113 563490 371498
114 504241 269468
115 602592 407286
116 663440 197024
117 664086 298762
118 549305 382838
119 434457 484141
120 552153 310667
121 551117 466205
122 606324 315495
123 680028 189398
124 511442 362316
125 496532 471614
126 611803 245455
127 643705 314775
128 540181 278227
129 544071 359069
130 370523 334622
131 697404 295183
132 492262 404925
133 546232 325830
134 605639 332625
135 480791 336648
136 641414 371678
137 640143 307367
138 534170 346983
139 617072 194495
140 535236 283147
141 679883 327244
142 578993 350931
143 474537 425715
144 444269 433932
145 454430 300102
146 454361 296732
147 649716 419489
148 505728 295518
149 526942 342259
150 611362 216562
151 673712 362303
152 597195 371436
153 522786 421688
154 502216 267327
155 635741 297580
156 766951 312210
157 640849 362330
158 618291 316918
159 571971 229763
160 623589 420859
161 599750 282998
162 684220 203677
163 772996 378604
164 496785 497366
165 693451 236397
166 549946 263026
167 576627 340211
168 530073 352870
169 644610 365441
170 633274 429493
171 470043 303531
172 701179 233855
173 661454 287297
174 677674 433025
175 650743 318248
176 487038 164828
177 655868 285617
178 416405 188359
179 716211 159171
180 461485 302164
181 588954 173040
182 565910 317826
183 441072 469751
184 700881 235418
185 465171 330815
186 514315 292349
187 494378 469941
188 668141 288474
189 543306 311463
190 590141 344348
191 596452 342283
192 573127 257429
193 628224 468401
194 476584 339904
195 671566 282700
196 643623 353028
197 339062 320876
198 599095 213726
199 723106 330586
200 658096 274501
