data/evaluate/tsp/small/expert_policies/subtour_LT-DRQSHW3/logs/C200_1014.tsp.log
Version identifier: 12.10.0.0 | 2019-11-26 | 843d4de
CPXPARAM_Preprocessing_Presolve                  0
CPXPARAM_Read_DataCheck                          1
CPXPARAM_Threads                                 1
CPXPARAM_MIP_Display                             4
CPXPARAM_MIP_Strategy_Search                     1
CPXPARAM_MIP_Interval                            1
CPXPARAM_TimeLimit                               10800
CPXPARAM_MIP_Limits_CutsFactor                   0
Lazy constraint(s) or lazy constraint/branch callback is present.
    Disabling dual reductions (CPX_PARAM_REDUCE) in presolve.
    Disabling non-linear reductions (CPX_PARAM_PRELINEAR) in presolve.
    Disabling presolve reductions that prevent crushing forms.
Dual steepest-edge pricing selected.
MIP emphasis: balance optimality and feasibility.
MIP search method: traditional branch-and-cut.
Parallel mode: none, using 1 thread.
Initializing dual steep norms . . .

Iteration log . . .
Iteration:     1   Dual objective     =         29743.000000
Iteration:   176   Dual objective     =       3071899.500000
Root relaxation solution time = 0.01 sec. (6.22 ticks)

        Nodes                                         Cuts/
   Node  Left     Objective  IInf  Best Integer    Best Bound    ItCnt     Gap         Variable B NodeID Parent  Depth

      0     0  3386392.0000    24                3386392.0000      288         
      0     0  3553246.0000    24                   User: 111      378         
      0     0  3586746.0000    24                    User: 59      411         
      0     0  3619097.7500    24                    User: 59      451         
      0     0  3657201.2500    24                    User: 39      460         
      0     0  3661649.0000    24                    User: 42      468         
*     0+    0                      3970827.0000  3661649.0000             7.79%
Found incumbent of value 3970827.000000 after 5.01 sec. (372.93 ticks)
      0     2  3661649.0000    36  3970827.0000  3661649.0000      468    7.79%                        0             0
Elapsed time = 5.49 sec. (990.07 ticks, tree = 0.01 MB, solutions = 1)
Cannot find any cut at node 1
      1     3  3664779.0000    36  3970827.0000  3661649.0000      471    7.79%        x.97.125 D      1      0      1
Cannot find any cut at node 2
      2     4  3664851.5000    36  3970827.0000  3664779.0000      476    7.71%        x.97.125 U      2      0      1
Cannot find any cut at node 3
      3     5  3665158.2500    30  3970827.0000  3664779.0000      477    7.71%        x.79.199 D      3      1      2
Cannot find any cut at node 4
      4     6  3673517.5000    20  3970827.0000  3664851.5000      488    7.71%        x.79.199 U      4      1      2
Cannot find any cut at node 5
      5     7  3665344.0000    28  3970827.0000  3664851.5000      489    7.71%       x.125.149 D      5      3      3
Cannot find any cut at node 6
      6     8  3665644.5000    30  3970827.0000  3664851.5000      492    7.71%       x.125.149 U      6      3      3
Cannot find any cut at node 7
      7     9  3668548.0000    28  3970827.0000  3664851.5000      503    7.71%        x.34.189 D      7      5      4
Cannot find any cut at node 8
      8    10  3667956.0000    22  3970827.0000  3664851.5000      515    7.71%        x.34.189 U      8      5      4
Cannot find any cut at node 9
      9    11  3668628.0000    18  3970827.0000  3664851.5000      518    7.71%         x.73.79 D      9      8      5
Cannot find any cut at node 10
     10    12  3668953.5000    16  3970827.0000  3664851.5000      519    7.71%         x.73.79 U     10      8      5
Elapsed time = 11.77 sec. (1481.63 ticks, tree = 0.10 MB, solutions = 1)
Cannot find any cut at node 11
     11    13  3668939.5000    14  3970827.0000  3664851.5000      520    7.71%       x.172.187 D     11      9      6
Cannot find any cut at node 12
     12    14  3670883.5000     8  3970827.0000  3664851.5000      523    7.71%       x.172.187 U     12      9      6
Cannot find any cut at node 13
     13    15  3670262.7500    30  3970827.0000  3664851.5000      529    7.71%          x.0.83 N     13     11      7
Cannot find any cut at node 14
     14    16  3671986.0000    14  3970827.0000  3664851.5000      538    7.71%          x.0.83 U     14     11      7
Cannot find any cut at node 15
     15    17  3671800.5000    18  3970827.0000  3664851.5000      544    7.71%        x.64.130 D     15     13      8
Cannot find any cut at node 16
     16    18  3670281.5000    28  3970827.0000  3664851.5000      545    7.71%        x.64.130 U     16     13      8
Cannot find any cut at node 17
     17    19  3671117.5000     8  3970827.0000  3664851.5000      547    7.71%        x.73.103 D     17     16      9
Cannot find any cut at node 18
     18    20  3670897.0000    16  3970827.0000  3664851.5000      549    7.71%        x.73.103 U     18     16      9
Cannot find any cut at node 19
     19    21  3671841.5000    14  3970827.0000  3664851.5000      553    7.71%        x.83.154 D     19     18     10
Cannot find any cut at node 20
     20    22  3675703.0000    14  3970827.0000  3664851.5000      564    7.71%        x.83.154 U     20     18     10
Elapsed time = 17.44 sec. (1847.55 ticks, tree = 0.19 MB, solutions = 1)
Cannot find any cut at node 21
     21    23  3672134.5000    14  3970827.0000  3664851.5000      565    7.71%       x.172.199 D     21     19     11
Cannot find any cut at node 22
     22    24  3674938.5000     8  3970827.0000  3664851.5000      568    7.71%       x.172.199 U     22     19     11
Cannot find any cut at node 23
     23    25  3672497.5000     8  3970827.0000  3664851.5000      569    7.71%        x.85.176 D     23     21     12
Cannot find any cut at node 24
     24    26  3672293.5000     8  3970827.0000  3664851.5000      571    7.71%        x.85.176 U     24     21     12
Cut score: 2970.1667, branch score: 1713.8333
At node 25, add 76 user cuts
Cannot find any cut at node 25
     25    27  3675501.1667    15  3970827.0000  3664851.5000      582    7.71%         x.67.77 N     25     24     13
                                                     User: 76                  
Cut score: 46.5000, branch score: 1232.3333
     26    28  3680026.5000     6  3970827.0000  3664851.5000      596    7.71%         x.67.77 U     26     24     13
     27    29  3680397.0000    14  3970827.0000  3664851.5000      598    7.71%          x.0.58 D     27     26     14
                                                      User: 3                  
Cut score: 202.5000, branch score: 351.6667
     28    30  3680182.5000     6  3970827.0000  3664851.5000      599    7.71%          x.0.58 U     28     26     14
Cut score: 324.0000, branch score: 714.0833
     29    31  3680709.0000    14  3970827.0000  3664851.5000      603    7.71%         x.58.83 D     29     28     15
Cut score: 2611.0000, branch score: 2188.8333
At node 30, add 2 user cuts
Cut score: 1301.0000, branch score: 1753.6667
     30    32  3689799.0000     6  3970827.0000  3664851.5000      621    7.71%         x.58.83 N     30     28     15
                                                      User: 2                  
Elapsed time = 53.06 sec. (2259.85 ticks, tree = 0.29 MB, solutions = 1)
Cut score: 573.0000, branch score: 1541.1667
     31    33  3680958.0000     6  3970827.0000  3664851.5000      623    7.71%        x.91.116 D     31     29     16
Cut score: 830.0000, branch score: 465.0000
At node 32, add 8 user cuts
Cannot find any cut at node 32
     32    34  3687797.0000     6  3970827.0000  3664851.5000      639    7.71%        x.91.116 N     32     29     16
                                                      User: 8                  
Cannot find any cut at node 33
     33    35  3681125.5000     6  3970827.0000  3664851.5000      640    7.71%       x.110.126 D     33     31     17
Cut score: 164.0000, branch score: 863.1667
     34    36  3687340.0000     6  3970827.0000  3664851.5000      646    7.71%       x.110.126 U     34     31     17
Cut score: 1600.5000, branch score: 2380.6667
     35    37  3681985.5000     6  3970827.0000  3664851.5000      648    7.71%        x.26.195 D     35     33     18
Cut score: 474.5000, branch score: 1476.7500
     36    38  3691237.0000     6  3970827.0000  3664851.5000      659    7.71%        x.26.195 U     36     33     18
Cut score: 2460.0000, branch score: 3152.1667
     37    39  3682845.0000     8  3970827.0000  3664851.5000      665    7.71%        x.91.126 D     37     35     19
Cut score: 1128.0000, branch score: 1908.1667
     38    40  3689395.0000     6  3970827.0000  3664851.5000      676    7.71%        x.91.126 U     38     35     19
Cannot find any cut at node 39
     39    41  3682974.0000     8  3970827.0000  3664851.5000      677    7.71%       x.116.126 D     39     37     20
Cut score: 1656.0000, branch score: 1320.1667
At node 40, add 24 user cuts
Cannot find any cut at node 40
     40    42  3691114.0000     6  3970827.0000  3664851.5000      691    7.71%       x.116.126 N     40     37     20
                                                     User: 24                  
Elapsed time = 92.57 sec. (2703.36 ticks, tree = 0.39 MB, solutions = 1)
Cannot find any cut at node 41
     41    43  3688538.5000     8  3970827.0000  3664851.5000      697    7.71%           x.2.9 D     41     39     21
Cannot find any cut at node 42
     42    44  3689867.5000     8  3970827.0000  3664851.5000      700    7.71%         x.9.173 D     42     41     22
     43    45  3696781.0000    10  3970827.0000  3664851.5000      707    7.71%         x.9.173 U     43     41     22
                                                      User: 3                  
Cut score: 191.6667, branch score: 74.8611
At node 44, add 14 user cuts
Cannot find any cut at node 44
     44    46  3691880.6667    26  3970827.0000  3664851.5000      718    7.71%         x.2.173 N     44     42     23
                                                     User: 14                  
Cut score: 631.9333, branch score: 2503.4583
     45    47  3692913.6667    16  3970827.0000  3664851.5000      726    7.71%       x.146.173 D     45     44     24
     46    48  3707891.5000     6  3970827.0000  3664851.5000      731    7.71%         x.47.75 D     46     45     25
                                                      User: 3                  
Cut score: 759.2500, branch score: 696.7222
At node 47, add 13 user cuts
     47    49  3694140.8000    41  3970827.0000  3664851.5000      743    7.71%         x.47.75 N     47     45     25
                                                     User: 15                  
     48    50  3695513.5000    14  3970827.0000  3664851.5000      749    7.71%         x.2.169 D     48     47     26
                                                      User: 3                  
Cut score: 595.7778, branch score: 283.8519
At node 49, add 42 user cuts
     49    51  3695349.3333    14  3970827.0000  3664851.5000      769    7.71%         x.2.169 N     49     47     26
                                                     User: 44                  
Cut score: 1460.9524, branch score: 4962.7500
     50    52  3696228.8333    12  3970827.0000  3664851.5000      776    7.71%       x.189.190 D     50     49     27
Elapsed time = 114.02 sec. (3969.79 ticks, tree = 0.49 MB, solutions = 1)
Cut score: 1290.5524, branch score: 384.4889
At node 51, add 2 user cuts
Cannot find any cut at node 51
     51    53  3696668.2857    23  3970827.0000  3664851.5000      792    7.71%       x.189.190 N     51     49     27
                                                      User: 2                  
Cannot find any cut at node 52
     52    54  3702744.2857    23  3970827.0000  3664851.5000      816    7.71%         x.34.50 D     52     50     28
Cannot find any cut at node 53
     53    55  3703353.7857    29  3970827.0000  3664851.5000      840    7.71%         x.34.50 U     53     50     28
Cannot find any cut at node 54
     54    56  3710317.0000    25  3970827.0000  3664851.5000      855    7.71%       x.159.169 D     54     52     29
Cannot find any cut at node 55
     55    57  3702925.4000    23  3970827.0000  3664851.5000      860    7.71%       x.159.169 U     55     52     29
Cannot find any cut at node 56
     56    58  3704875.0000    20  3970827.0000  3664851.5000      867    7.71%        x.83.103 D     56     55     30
Cut score: 231.0000, branch score: 1305.0000
     57    59  3705896.0000    14  3970827.0000  3664851.5000      877    7.71%        x.83.103 U     57     55     30
Cannot find any cut at node 58
     58    60  3705548.3333    18  3970827.0000  3664851.5000      881    7.71%       x.105.154 D     58     56     31
Cannot find any cut at node 59
     59    61  3705586.4000    31  3970827.0000  3664851.5000      891    7.71%       x.105.154 U     59     56     31
Cannot find any cut at node 60
*    60+   60                      3758454.0000  3664851.5000             2.49%
Found incumbent of value 3758454.000000 after 127.04 sec. (4599.81 ticks)
     60    62  3706334.3333    20  3758454.0000  3664851.5000      894    2.49%        x.58.154 D     60     58     32
                                                      User: 2                  
Elapsed time = 127.08 sec. (4651.01 ticks, tree = 0.60 MB, solutions = 2)
Cannot find any cut at node 61
     61    63  3711805.6667    18  3758454.0000  3664851.5000      913    2.49%        x.58.154 U     61     58     32
Cannot find any cut at node 62
     62    64  3707133.3333    20  3758454.0000  3664851.5000      917    2.49%         x.0.154 D     62     60     33
Cut score: 996.8000, branch score: 2204.3889
     63    65  3713510.0000    20  3758454.0000  3664851.5000      928    2.49%         x.0.154 U     63     60     33
Cannot find any cut at node 64
     64    66  3708219.8000    18  3758454.0000  3664851.5000      934    2.49%        x.83.160 D     64     62     34
Cannot find any cut at node 65
     65    67  3715845.0000    23  3758454.0000  3664851.5000      954    2.49%        x.83.160 U     65     62     34
Cannot find any cut at node 66
     66    68  3708388.3333    13  3758454.0000  3664851.5000      955    2.49%       x.105.176 D     66     64     35
Cannot find any cut at node 67
     67    69  3715603.5000     6  3758454.0000  3664851.5000      961    2.49%       x.105.176 U     67     64     35
Cannot find any cut at node 68
     68    70  3711804.0000    14  3758454.0000  3664851.5000      965    2.49%       x.103.105 D     68     66     36
*    69    61      integral     0  3711580.0000  3664851.5000      974    1.26%
Found incumbent of value 3711580.000000 after 136.81 sec. (4870.55 ticks)
     69    59  3711580.0000     0  3711580.0000  3664851.5000      974    1.26%       x.103.105 U     69     66     36
Cut score: 2667.5000, branch score: 2177.6667
At node 70, add 1 user cuts
Cannot find any cut at node 70
     70    60  3673752.5000    36  3711580.0000  3664851.5000      985    1.26%       x.158.197 N     70      2      2
                                                      User: 1                  
Elapsed time = 142.43 sec. (4929.14 ticks, tree = 0.59 MB, solutions = 3)
Cannot find any cut at node 71
     71    61  3674618.0000    30  3711580.0000  3664851.5000      993    1.26%        x.79.199 D     71     70      3
Cannot find any cut at node 72
     72    62  3682491.0000    20  3711580.0000  3664851.5000     1003    1.26%        x.79.199 U     72     70      3
Cannot find any cut at node 73
     73    63  3677822.0000    30  3711580.0000  3664851.5000     1013    1.26%        x.34.189 D     73     71      4
Cannot find any cut at node 74
     74    64  3677230.0000    24  3711580.0000  3664851.5000     1017    1.26%        x.34.189 U     74     71      4
Cannot find any cut at node 75
     75    65  3682451.0000    26  3711580.0000  3664851.5000     1025    1.26%         x.73.79 D     75     74      5
Cannot find any cut at node 76
     76    66  3678095.5000    33  3711580.0000  3664851.5000     1029    1.26%         x.73.79 U     76     74      5
Cannot find any cut at node 77
     77    67  3681933.0000    34  3711580.0000  3664851.5000     1035    1.26%        x.42.130 D     77     76      6
Cannot find any cut at node 78
     78    68  3687207.0000    14  3711580.0000  3664851.5000     1048    1.26%        x.42.130 U     78     76      6
Cannot find any cut at node 79
     79    69  3683737.0000    38  3711580.0000  3664851.5000     1051    1.26%         x.66.79 D     79     77      7
Cannot find any cut at node 80
     80    70  3683982.7500    53  3711580.0000  3664851.5000     1062    1.26%         x.66.79 U     80     77      7
Elapsed time = 148.14 sec. (5147.22 ticks, tree = 0.72 MB, solutions = 3)
Cannot find any cut at node 81
     81    71  3688172.5000    34  3711580.0000  3664851.5000     1066    1.26%          x.7.79 D     81     79      8
Cannot find any cut at node 82
     82    72  3687590.7500    53  3711580.0000  3664851.5000     1081    1.26%          x.7.79 U     82     79      8
Cannot find any cut at node 83
     83    73  3687723.5000    28  3711580.0000  3664851.5000     1083    1.26%        x.78.149 D     83     82      9
Cannot find any cut at node 84
     84    74  3691672.5000    22  3711580.0000  3664851.5000     1087    1.26%        x.78.149 U     84     82      9
Cannot find any cut at node 85
     85    75  3687871.5000    20  3711580.0000  3664851.5000     1088    1.26%       x.172.187 D     85     83     10
Cannot find any cut at node 86
     86    76  3689199.5000    20  3711580.0000  3664851.5000     1091    1.26%       x.172.187 U     86     83     10
Cannot find any cut at node 87
     87    77  3688795.5000    24  3711580.0000  3664851.5000     1093    1.26%          x.0.83 D     87     85     11
Cut score: 4021.5000, branch score: 2590.0000
At node 88, add 1 user cuts
Cannot find any cut at node 88
     88    78  3690918.0000    20  3711580.0000  3664851.5000     1104    1.26%          x.0.83 N     88     85     11
                                                      User: 1                  
Cut score: 139.0000, branch score: 236.4167
     89    79  3692115.5000    18  3711580.0000  3664851.5000     1110    1.26%        x.93.108 D     89     87     12
Cut score: 6682.5000, branch score: 1156.6667
At node 90, add 25 user cuts
Cannot find any cut at node 90
     90    80  3690817.5000    32  3711580.0000  3664851.5000     1136    1.26%        x.93.108 N     90     87     12
                                                     User: 25                  
Elapsed time = 168.03 sec. (5362.86 ticks, tree = 0.85 MB, solutions = 3)
Cut score: 498.0000, branch score: 1273.0833
     91    81  3705624.0000    44  3711580.0000  3664851.5000     1163    1.26%        x.15.120 D     91     90     13
Cannot find any cut at node 92
     92    82  3691369.2500    32  3711580.0000  3664851.5000     1169    1.26%        x.15.120 U     92     90     13
Cannot find any cut at node 93
     93    83  3691771.0000    34  3711580.0000  3664851.5000     1173    1.26%        x.40.120 D     93     92     14
Cut score: 10610.5000, branch score: 1671.6667
At node 94, add 2 user cuts
     94    82        cutoff        3711580.0000  3664851.5000     1196    1.26%        x.40.120 N     94     92     14
                                                      User: 2                  
Cannot find any cut at node 95
     95    83  3706119.5000    45  3711580.0000  3664851.5000     1229    1.26%        x.74.120 D     95     93     15
Cannot find any cut at node 96
     96    84  3691801.5000    37  3711580.0000  3664851.5000     1230    1.26%        x.74.120 U     96     93     15
Cannot find any cut at node 97
     97    85  3695303.5000    33  3711580.0000  3664851.5000     1234    1.26%       x.149.197 D     97     96     16
Cut score: 8256.0000, branch score: 4095.1667
At node 98, add 3 user cuts
Cannot find any cut at node 98
     98    86  3691867.5000    24  3711580.0000  3664851.5000     1236    1.26%       x.149.197 N     98     96     16
                                                      User: 3                  
Cannot find any cut at node 99
     99    87  3692400.5000    51  3711580.0000  3664851.5000     1243    1.26%        x.99.119 D     99     98     17
Cannot find any cut at node 100
    100    88  3694272.5000    18  3711580.0000  3664851.5000     1248    1.26%        x.99.119 U    100     98     17
Elapsed time = 187.22 sec. (5678.18 ticks, tree = 0.96 MB, solutions = 3)
Cut score: 3528.6250, branch score: 892.4375
At node 101, add 9 user cuts
Cut score: 3617.6250, branch score: 981.4375
At node 101, add 8 user cuts
Cut score: 3128.7500, branch score: 2238.3542
At node 101, add 11 user cuts
Cannot find any cut at node 101
    101    89  3704281.0000    36  3711580.0000  3664851.5000     1274    1.26%        x.56.160 N    101     99     18
                                                     User: 28                  
Cannot find any cut at node 102
    102    90  3692454.5000    24  3711580.0000  3664851.5000     1275    1.26%        x.56.160 U    102     99     18
Cannot find any cut at node 103
    103    91  3693488.0000    22  3711580.0000  3664851.5000     1276    1.26%        x.83.103 D    103    102     19
Cannot find any cut at node 104
    104    92  3694004.5000    34  3711580.0000  3664851.5000     1280    1.26%        x.83.103 U    104    102     19
Cannot find any cut at node 105
    105    93  3694964.0000    18  3711580.0000  3664851.5000     1287    1.26%        x.83.154 D    105    103     20
Cut score: 8588.0833, branch score: 1789.6111
At node 106, add 21 user cuts
Cannot find any cut at node 106
    106    94  3698294.0000    20  3711580.0000  3664851.5000     1299    1.26%        x.83.154 N    106    103     20
                                                     User: 21                  
Cannot find any cut at node 107
    107    95  3695716.5000    20  3711580.0000  3664851.5000     1301    1.26%         x.78.97 D    107    105     21
Cannot find any cut at node 108
    108    96  3701001.5000    14  3711580.0000  3664851.5000     1305    1.26%         x.78.97 U    108    105     21
Cannot find any cut at node 109
    109    97  3698427.5000    14  3711580.0000  3664851.5000     1310    1.26%          x.5.39 D    109    107     22
Cut score: 9003.3333, branch score: 2679.0278
At node 110, add 8 user cuts
Cannot find any cut at node 110
    110    98  3695935.6667    56  3711580.0000  3664851.5000     1315    1.26%          x.5.39 N    110    107     22
                                                      User: 8                  
Elapsed time = 216.78 sec. (5980.01 ticks, tree = 1.10 MB, solutions = 3)
Cannot find any cut at node 111
    111    99  3702259.5000    30  3711580.0000  3664851.5000     1342    1.26%        x.13.160 D    111    110     23
Cannot find any cut at node 112
    112   100  3695984.0000    20  3711580.0000  3664851.5000     1344    1.26%        x.13.160 U    112    110     23
Cut score: 9223.0000, branch score: 4453.1667
At node 113, add 8 user cuts
Cannot find any cut at node 113
    113   101  3696140.5000    22  3711580.0000  3664851.5000     1347    1.26%        x.39.119 N    113    112     24
                                                      User: 8                  
Cannot find any cut at node 114
    114   102  3705156.0000    20  3711580.0000  3664851.5000     1367    1.26%        x.39.119 U    114    112     24
Cannot find any cut at node 115
    115   103  3698015.5000    14  3711580.0000  3664851.5000     1371    1.26%          x.5.99 D    115    113     25
Cannot find any cut at node 116
    116   104  3696333.5000    38  3711580.0000  3664851.5000     1377    1.26%          x.5.99 U    116    113     25
Cut score: 6547.3333, branch score: 4859.3333
At node 117, add 2 user cuts
Cannot find any cut at node 117
    117   105  3699248.9444    58  3711580.0000  3664851.5000     1396    1.26%         x.67.77 N    117    116     26
                                                      User: 2                  
Cannot find any cut at node 118
    118   106  3704853.5000    36  3711580.0000  3664851.5000     1410    1.26%         x.67.77 U    118    116     26
Cannot find any cut at node 119
    119   107  3699486.5000    50  3711580.0000  3664851.5000     1412    1.26%        x.77.110 D    119    117     27
Cannot find any cut at node 120
    120   108  3705463.7500    61  3711580.0000  3664851.5000     1421    1.26%        x.77.110 U    120    117     27
Elapsed time = 231.16 sec. (6203.87 ticks, tree = 1.23 MB, solutions = 3)
Cannot find any cut at node 121
    121   109  3704425.5000    36  3711580.0000  3664851.5000     1436    1.26%        x.17.195 D    121    119     28
Cannot find any cut at node 122
    122   110  3699690.5000    53  3711580.0000  3664851.5000     1440    1.26%        x.17.195 U    122    119     28
Cannot find any cut at node 123
    123   111  3700203.5000    40  3711580.0000  3664851.5000     1447    1.26%        x.67.157 D    123    122     29
Cannot find any cut at node 124
    124   112  3702248.0000    22  3711580.0000  3664851.5000     1458    1.26%        x.67.157 U    124    122     29
Cannot find any cut at node 125
    125   113  3700433.0000    38  3711580.0000  3664851.5000     1459    1.26%       x.126.174 D    125    123     30
Cannot find any cut at node 126
    126   114  3700293.7500    61  3711580.0000  3664851.5000     1463    1.26%       x.126.174 U    126    123     30
Cannot find any cut at node 127
    127   115  3700311.5000    36  3711580.0000  3664851.5000     1465    1.26%        x.27.103 D    127    126     31
    128   114        cutoff        3711580.0000  3664851.5000     1482    1.26%        x.27.103 U    128    126     31
Cannot find any cut at node 129
    129   115  3700725.0625    71  3711580.0000  3664851.5000     1486    1.26%        x.91.116 N    129    127     32
Cannot find any cut at node 130
    130   116  3706094.0000    36  3711580.0000  3664851.5000     1499    1.26%        x.91.116 U    130    127     32
Elapsed time = 235.70 sec. (6357.42 ticks, tree = 1.34 MB, solutions = 3)
Cannot find any cut at node 131
    131   117  3700756.0000    44  3711580.0000  3664851.5000     1500    1.26%         x.27.83 D    131    129     33
    132   116        cutoff        3711580.0000  3664851.5000     1523    1.26%         x.27.83 U    132    129     33
Cannot find any cut at node 133
    133   117  3703759.0000    40  3711580.0000  3664851.5000     1527    1.26%        x.64.130 D    133    131     34
Cannot find any cut at node 134
    134   118  3700827.5000    30  3711580.0000  3664851.5000     1528    1.26%        x.64.130 U    134    131     34
Cannot find any cut at node 135
    135   119  3700923.5000    24  3711580.0000  3664851.5000     1530    1.26%          x.3.41 D    135    134     35
Cannot find any cut at node 136
    136   120  3706015.5000     6  3711580.0000  3664851.5000     1541    1.26%          x.3.41 U    136    134     35
Cut score: 8743.0000, branch score: 8924.7500
    137   121  3705624.0000    34  3711580.0000  3664851.5000     1552    1.26%           x.2.9 D    137    135     36
Cannot find any cut at node 138
    138   122  3701796.5000    24  3711580.0000  3664851.5000     1555    1.26%           x.2.9 U    138    135     36
Cannot find any cut at node 139
    139   123  3701833.0000    32  3711580.0000  3664851.5000     1556    1.26%         x.2.169 D    139    138     37
Cannot find any cut at node 140
    140   124  3701991.0000    24  3711580.0000  3664851.5000     1557    1.26%        x.31.132 D    140    139     38
Elapsed time = 242.55 sec. (6491.54 ticks, tree = 1.44 MB, solutions = 3)
*   141    87      integral     0  3702218.0000  3664851.5000     1561    1.01%
Found incumbent of value 3702218.000000 after 242.56 sec. (6504.84 ticks)
    141    87  3702218.0000     0  3702218.0000  3664851.5000     1561    1.01%        x.31.132 U    141    139     38
    142    86        cutoff        3702218.0000  3664851.5000     1562    1.01%       x.189.190 D    142    140     39
    143    85        cutoff        3702218.0000  3664851.5000     1565    1.01%       x.189.190 U    143    140     39
Cannot find any cut at node 144
    144    86  3666890.5000    40  3702218.0000  3665644.5000     1568    0.99%       x.158.197 D    144      2      2

User cuts applied:  628

Root node processing (before b&c):
  Real time             =    5.48 sec. (990.21 ticks)
Sequential b&c:
  Real time             =  237.47 sec. (5573.60 ticks)
                          ------------
Total (root+branch&cut) =  242.96 sec. (6563.80 ticks)
